p cnf 14 35
-14 13 9 0
14 13 3 0
-14 -8 5 0
-14 8 -2 0
-14 -8 -1 0
14 6 -2 0
-14 5 -3 0
14 -4 -2 0
-14 4 1 0
14 2 -1 0
-13 -11 -7 0
13 -9 8 0
-13 9 3 0
-12 9 -2 0
-12 -9 2 0
-12 -8 6 0
12 -8 1 0
12 6 -5 0
-12 -6 2 0
-12 -5 -2 0
12 -4 2 0
11 -10 -3 0
11 -10 -1 0
11 9 7 0
-11 -6 -4 0
-11 -4 1 0
10 -9 3 0
10 -9 -1 0
-10 -6 -3 0
-10 5 3 0
-9 -5 3 0
-8 -7 4 0
-7 -4 3 0
7 -2 1 0
6 4 1 0
